;; sat

(declare-const x1 sl.list.loc)
(declare-const x2 sl.list.loc)
(declare-const x3 sl.list.loc)
(declare-const x4 sl.list.loc)
(declare-const x5 sl.list.loc)
(declare-const x6 sl.list.loc)
(declare-const x7 sl.list.loc)
(declare-const x8 sl.list.loc)
(declare-const x9 sl.list.loc)
(declare-const x10 sl.list.loc)
(declare-const x11 sl.list.loc)
(declare-const x12 sl.list.loc)
(declare-const x13 sl.list.loc)
(declare-const x14 sl.list.loc)
(declare-const x15 sl.list.loc)
(declare-const x16 sl.list.loc)
(declare-const x17 sl.list.loc)
(declare-const x18 sl.list.loc)
(declare-const x19 sl.list.loc)
(declare-const x20 sl.list.loc)

(assert (sl.sepcon (sl.sepcon (sl.sepcon (sl.sepcon (sl.sepcon (sl.sepcon (sl.sepcon (sl.sepcon (sl.sepcon (sl.sepcon (sl.sepcon (sl.sepcon (sl.sepcon (sl.sepcon (sl.sepcon (sl.sepcon (sl.sepcon (sl.sepcon (sl.sepcon (sl.sepcon (sl.sepcon (sl.sepcon (sl.sepcon (sl.list.eq sl.list.null sl.list.null)
 (sl.list.neq x6 x13)
)
 (sl.list.neq x11 x14)
)
 (sl.list.neq x3 x7)
)
 (sl.list.neq x7 x10)
)
 (sl.list.neq x7 x14)
)
 (sl.list.neq x9 x11)
)
 (sl.list.neq x17 x19)
)
 (sl.list.neq x12 x18)
)
 (sl.list.neq x12 x17)
)
 (sl.list.neq x2 x11)
)
 (sl.list.neq x2 x19)
)
 (sl.list.neq x2 x17)
)
 (sl.list.neq x14 x16)
)
 (sl.list.neq x1 x3)
)
 (sl.list.neq x4 x17)
)
 (sl.list.neq x10 x19)
)
 (sl.list.neq x10 x17)
)
 (sl.list.neq x10 x15)
)
 (sl.list.neq x13 x18)
)
 (sl.list.neq x13 x17)
)
 (sl.list.neq x5 x7)
)
 (sl.list.neq x5 x20)
)
 (sl.sepcon (sl.sepcon (sl.sepcon (sl.sepcon (sl.sepcon (sl.sepcon (sl.sepcon (sl.sepcon (sl.sepcon (sl.sepcon (sl.sepcon (sl.sepcon (sl.list.seg x13 x10)
 (sl.list.seg x16 x10)
)
 (sl.list.seg x10 x19)
)
 (sl.list.seg x18 x14)
)
 (sl.list.seg x1 x20)
)
 (sl.list.seg x14 x3)
)
 (sl.list.seg x15 x14)
)
 (sl.list.seg x17 x10)
)
 (sl.list.seg x7 x10)
)
 (sl.list.seg x3 x20)
)
 (sl.list.seg x11 x2)
)
 (sl.list.seg x11 x8)
)
 (sl.list.seg x6 x2)
)
)
)

